c read Graph
c width = 83
c time = 413 ms
c width = 11
c time = 538 ms
c width = 10
c time = 585 ms
c width = 9
c time = 644 ms
c width = 8
c time = 2124 ms
c width = 8
c time = 4532 ms
s td 88 9 96
b 1 1 2 13
b 2 2 3 13 14
b 3 10 11 23 24
b 4 3 13 14 25
b 5 10 23 24 36
b 6 61 73 74 86
b 7 72 83 84 95
b 8 61 74 86 87
b 9 72 83 94 95
b 10 3 4 14 15 25
b 11 4 5 14 15 16 25
b 12 5 7 14 15 16 17 18 25
b 13 7 14 15 16 17 18 25 26
b 14 7 15 16 17 18 25 26 27
b 15 7 16 17 18 25 26 27 28
b 16 7 17 18 25 26 27 28 29
b 17 7 18 25 26 27 28 29 37
b 18 7 18 26 27 28 29 37 38
b 19 7 18 27 28 29 37 38 39
b 20 7 18 28 29 37 38 39 40
b 21 7 18 29 30 37 38 39 40 41
b 22 7 18 30 37 38 39 40 41 49
b 23 7 18 30 38 39 40 41 49 50
b 24 7 18 30 39 40 41 49 50 51
b 25 7 18 30 40 41 49 50 51 52
b 26 7 18 30 41 49 50 51 52 61
b 27 7 18 30 41 50 51 52 61 62
b 28 7 18 30 41 51 52 61 62 63
b 29 7 18 30 41 52 61 62 63 74
b 30 7 18 30 41 52 61 63 74 87
b 31 7 18 30 41 52 63 74 75 87
b 32 7 18 30 41 52 63 64 75 87
b 33 7 18 30 41 52 53 64 75 87
b 34 7 18 30 41 42 53 64 75 87
b 35 7 18 30 31 42 53 64 75 87
b 36 7 18 20 31 42 53 64 75 87
b 37 7 9 20 31 42 53 64 75 87
b 38 9 20 31 42 53 64 75 76 87
b 39 9 20 31 42 53 64 65 76 87
b 40 9 20 31 42 53 54 65 76 87
b 41 9 20 31 42 43 54 65 76 87
b 42 9 20 31 43 54 65 76 87 88
b 43 9 20 31 43 54 65 76 77 88
b 44 9 20 31 43 54 65 66 77 88
b 45 9 20 31 43 54 55 66 77 88
b 46 9 20 31 43 44 55 66 77 88
b 47 9 20 31 33 44 55 66 77 88
b 48 9 20 33 44 55 66 77 88 89
b 49 9 20 33 44 55 66 77 78 89
b 50 9 20 33 44 55 66 67 78 89
b 51 9 20 33 44 55 67 78 89 90
b 52 9 20 33 44 55 67 78 79 90
b 53 9 20 33 44 55 67 68 79 90
b 54 9 20 33 44 55 57 68 79 90
b 55 9 20 33 44 46 57 68 79 90
b 56 9 20 33 46 57 68 79 90 91
b 57 9 20 33 46 57 68 79 80 91
b 58 9 20 33 46 57 68 69 80 91
b 59 9 20 33 46 57 69 80 91 92
b 60 9 20 33 46 57 69 80 81 92
b 61 9 20 33 46 57 69 70 81 92
b 62 9 20 33 46 57 59 70 81 92
b 63 9 20 33 46 48 59 70 81 92
b 64 48 59 70 81 92 94
b 65 81 92 93 94
b 66 48 59 70 72 81 94
b 67 48 59 60 72
b 68 59 70 72 81 82 94
b 69 59 70 71 72 82 94
b 70 71 72 82 83 94
b 71 44 55 56 57 68
b 72 46 57 58 59 70
b 73 20 31 32 33 44
b 74 9 20 33 35 46 48 59
b 75 35 46 47 48 59
b 76 9 20 22 33 35 46 48
b 77 9 22 35 36 48
b 78 9 10 22 35 36
b 79 10 22 23 35 36
b 80 9 20 21 22 33
b 81 22 33 34 35 46
b 82 33 44 45 46 57
b 83 5 6 7 18
b 84 7 8 9 20
b 85 7 18 19 20 31
b 86 84 95 96
b 87 73 85 86
b 88 11 12 24
1 2
2 4
3 88
3 5
4 10
5 79
6 87
6 8
7 86
7 9
8 30
9 70
10 11
11 12
12 83
12 13
13 14
14 15
15 16
16 17
17 18
18 19
19 20
20 21
21 22
22 23
23 24
24 25
25 26
26 27
27 28
28 29
29 30
30 31
31 32
32 33
33 34
34 35
35 36
36 85
36 37
37 84
37 38
38 39
39 40
40 41
41 42
42 43
43 44
44 45
45 46
46 47
47 73
47 48
48 49
49 50
50 51
51 52
52 53
53 54
54 71
54 55
55 82
55 56
56 57
57 58
58 59
59 60
60 61
61 62
62 72
62 63
63 74
63 64
64 66
64 65
66 67
66 68
68 69
69 70
74 75
74 76
76 77
76 80
76 81
77 78
78 79
